(declare-fun Constructed_Argument_t () String)
(declare-fun CreateAsClass () Bool)
(declare-fun ExpandObjSwitcher () Real)
(declare-fun Constructed_Argument_2_t () String)
(declare-fun CreateAsClass_2 () Bool)
(declare-fun Constructed_Argument_2 () Real)
(assert (= Constructed_Argument_t "null"))
(assert CreateAsClass)
(assert (= ExpandObjSwitcher 0.0))
(assert (= Constructed_Argument_2_t "number"))
(assert (not CreateAsClass_2))
(assert (not (= Constructed_Argument_2 0.0)))
(check-sat)
